computational_data/real_data/solutions/penguins_trial_016_lex.sol
Optimal - objective value 9.31343500
      0 r_0                         0                       1
      1 r_1                         0                0.985075
      2 r_2                         1                0.985075
      3 r_3                         0                0.985075
      4 r_4                         0                0.985075
      5 r_5                         0                0.985075
      6 r_6                         0                0.985075
      7 r_7                         0                0.970149
      8 r_8                         0                0.970149
      9 r_9                         0                0.955224
     10 r_10                        1                0.940299
     11 r_11                        1                0.940299
     12 r_12                        1                0.910448
     13 r_13                        1                0.880597
     14 r_14                        1                0.865672
     15 r_15                        1                0.865672
     16 b_0                         0                       1
     17 b_1                         0                0.985075
     18 b_2                         0                0.985075
     19 b_3                         0                0.985075
     20 b_4                         1                0.985075
     21 b_5                         0                0.985075
     22 b_6                         0                0.985075
     23 b_7                         1                0.970149
     24 b_8                         1                0.970149
     25 b_9                         0                0.955224
     26 b_10                        0                0.940299
     27 b_11                        0                0.940299
     28 b_12                        0                0.910448
     29 b_13                        0                0.880597
     30 b_14                        0                0.865672
     31 b_15                        0                0.865672
